job_count = 25 ;
duration = [|21, 14, 5, 9, 13|11, 7, 17, 16, 9|7, 11, 18, 5, 3|16, 8, 10, 4, 7|11, 18, 11, 8, 14|2, 18, 7, 11, 5|12, 14, 15, 15, 12|16, 5, 5, 17, 5|8, 5, 6, 2, 13|9, 6, 3, 12, 6|13, 3, 12, 17, 10|20, 18, 5, 13, 6|3, 15, 6, 15, 2|24, 21, 6, 3, 12|4, 20, 7, 7, 5|22, 11, 10, 2, 10|21, 6, 2, 5, 11|9, 9, 12, 2, 5|19, 12, 13, 12, 12|18, 16, 13, 16, 2|3, 16, 17, 4, 9|15, 20, 4, 5, 14|19, 8, 6, 3, 14|24, 3, 10, 3, 10|22, 10, 8, 17, 14|] ;
machine_count = 5 ;
cost = [|20, 29, 38, 33, 44|25, 26, 26, 26, 47|30, 18, 20, 23, 49|28, 32, 26, 44, 28|29, 24, 24, 30, 45|21, 28, 22, 30, 49|23, 25, 39, 29, 41|24, 33, 28, 37, 38|31, 21, 24, 40, 48|31, 34, 35, 32, 27|19, 24, 25, 25, 41|17, 34, 23, 28, 47|26, 24, 26, 23, 46|26, 19, 35, 36, 45|26, 29, 22, 35, 29|20, 18, 30, 44, 40|18, 19, 29, 23, 50|25, 32, 30, 37, 51|18, 19, 36, 27, 33|19, 28, 22, 27, 29|18, 28, 34, 35, 52|30, 35, 38, 30, 35|27, 29, 29, 32, 27|21, 24, 24, 27, 46|23, 26, 21, 39, 27|] ;
deadline = [33, 33, 33, 33, 33, 33, 33, 33, 33, 33, 33, 33, 33, 33, 33, 33, 33, 33, 33, 33, 33, 33, 33, 33, 33] ;
release = [0, 0, 0, 0, 0, 0, 0, 0, 0, 0, 0, 0, 0, 0, 0, 0, 0, 0, 0, 0, 0, 0, 0, 0, 0] ;
resource = [|4, 4, 4, 4, 4|7, 7, 7, 7, 7|1, 1, 1, 1, 1|1, 1, 1, 1, 1|4, 4, 4, 4, 4|6, 6, 6, 6, 6|1, 1, 1, 1, 1|4, 4, 4, 4, 4|3, 3, 3, 3, 3|7, 7, 7, 7, 7|1, 1, 1, 1, 1|2, 2, 2, 2, 2|5, 5, 5, 5, 5|2, 2, 2, 2, 2|5, 5, 5, 5, 5|5, 5, 5, 5, 5|4, 4, 4, 4, 4|4, 4, 4, 4, 4|6, 6, 6, 6, 6|2, 2, 2, 2, 2|3, 3, 3, 3, 3|1, 1, 1, 1, 1|6, 6, 6, 6, 6|3, 3, 3, 3, 3|2, 2, 2, 2, 2|] ;
capacities = [10, 10, 10, 10, 10] ;
